c --- [ banner ] -------------------------------------------------------------
c 
c CaDiCaL SAT Solver
c Copyright (c) 2016-2025
c A. Biere, M. Fleury, N. Froleyks, K. Fazekas, F. Pollitt, T. Faller
c JKU Linz, University of Freiburg, TU Wien
c 
c Version 3.0.0 7b99c07f0bcab5824a5a3ce62c7066554017f641
c Apple clang version 21.0.0 (clang-2100.0.123.102) -Wall -Wextra -O3 -DNDEBUG -DNCLOSEFROM
c Thu Apr 23 22:35:47 PDT 2026 Darwin dada-mun-26.local 25.4.0 arm64
c 
c --- [ limit ] --------------------------------------------------------------
c 
c setting time limit to 600 seconds real time (due to '-t 600')
c 
c --- [ proof tracing ] ------------------------------------------------------
c 
c opening file to write 'scratch/atail-force/exact5-card13-same-radius-terminal/mirror.drat'
c writing binary proof trace to 'scratch/atail-force/exact5-card13-same-radius-terminal/mirror.drat'
c 
c --- [ parsing input ] ------------------------------------------------------
c 
c reading DIMACS file from 'scratch/atail-force/exact5-card13-same-radius-terminal/mirror.cnf'
c opening file to read 'scratch/atail-force/exact5-card13-same-radius-terminal/mirror.cnf'
c found 'p cnf 53279 383465' header
c parsed 383465 clauses in 0.07 seconds process time
c 
c --- [ options ] ------------------------------------------------------------
c 
c   --compact=false                (different from default 'true')
c   --congruence=false             (different from default 'true')
c   --decompose=false              (different from default 'true')
c   --deduplicate=false            (different from default 'true')
c   --eagersubsume=false           (different from default 'true')
c   --elim=false                   (different from default 'true')
c   --factor=false                 (different from default 'true')
c   --factorunbump=false           (different from default 'true')
c   --fastelim=false               (different from default 'true')
c   --inprobing=false              (different from default 'true')
c   --inprocessing=false           (different from default 'true')
c   --preprocesslight=false        (different from default 'true')
c   --probe=false                  (different from default 'true')
c   --subsume=false                (different from default 'true')
c   --sweep=false                  (different from default 'true')
c   --ternary=false                (different from default 'true')
c   --transred=false               (different from default 'true')
c   --vivify=false                 (different from default 'true')
c 
c --- [ solving ] ------------------------------------------------------------
c 
c time measured in process time since initialization
c 
c  seconds  reduction conflicts       size tier2        variables
c         MB    restarts   redundant    glue  trail          remaining
c          level     rate       size/glu tier1  irredundant
c 
c *  0.07  0  0 0   0  0    0    0 0.0 0 0 2 6  0% 379825 50079 94%
c )  0.07  0  0 0   0  0    0    0 0.0 0 0 2 6  0% 379825 50079 94%
c {  0.07  0  0 0   0  0    0    0 0.0 0 0 2 6  0% 379825 50079 94%
c i  0.07  0 251 0   0  9   37   29 1.5 3 2 2 6  9% 379825 50078 94%
c i  0.08  0 289 0   2 11  107   87 1.7 2 1 2 6 13% 379825 50077 94%
c i  0.08  0 374 0   7 30  138  116 1.5 4 3 2 6 15% 379825 50076 94%
c i  0.08  0 344 0  11 32  153  129 1.4 4 3 2 6 14% 379825 50075 94%
c i  0.08  0 330 0  18 42  180  153 1.4 4 3 2 6 15% 379825 50074 94%
c i  0.09  0 225 0  46 32  276  241 1.5 5 4 2 6 14% 379825 50073 94%
c i  0.09  0 216 0  50 31  289  252 1.5 5 4 2 6 14% 379825 50072 94%
c -  0.11  0 210 1  53 30  300  227 1.5 5 4 2 6 14% 379132 50072 94%
c i  0.11  0 189 1  63 28  339  260 1.5 6 4 2 6 13% 379132 50071 94%
c i  0.12  0 166 1  81 26  406  319 1.5 6 4 2 6 13% 379132 50070 94%
c i  0.12  0 165 1  82 26  410  321 1.5 6 4 2 6 13% 379132 50069 94%
c i  0.12  0 163 1  85 26  419  329 1.5 6 4 2 6 13% 379132 50068 94%
c i  0.12  0 152 1  95 25  459  366 1.5 6 4 2 6 13% 379132 50067 94%
c i  0.12  0 147 1 101 24  481  386 1.5 7 4 2 6 13% 379132 50058 94%
c i  0.12  0 139 1 112 23  519  420 1.5 7 5 2 6 13% 379132 50049 94%
c i  0.13  0 122 1 145 21  636  533 1.5 7 5 2 6 13% 379132 50048 94%
c i  0.14  0 105 1 214 19  916  806 1.5 8 5 2 6 13% 379132 50047 94%
c 
c  seconds   reduction conflicts       size tier2        variables
c         MB     restarts   redundant    glue  trail          remaining
c           level     rate       size/glu tier1  irredundant
c 
c -  0.17  0 101 2 228 18  984  684 1.5 8 5 2 6 13% 378998 50047 94%
c }  0.17  0 101 2 228 18 1001  700 1.5 8 5 2 6 13% 378998 50047 94%
c [  0.17  0  0 2 228  0 1001  700 0.0 0 0 2 6  0% 378998 50047 94%
c O  0.17  0 19 2 228 20 1002  701 1.4 11 8 2 6  9% 378998 50047 94%
c i  0.18  0 28 2 228  3 1024  718 1.5 10 7 2 6 10% 378998 50046 94%
c i  0.18  0 28 2 228  3 1072  762 1.4 9 6 2 6 10% 378998 50045 94%
c -  0.22  0 31 3 229  2 2222 1099 1.4 20 14 2 6 13% 378986 50045 94%
c ]  0.26  0 37 3 229  2 2583 1454 1.4 20 14 2 6 15% 378986 50045 94%
c {  0.26  0 101 3 229 18 2583 1454 1.5 8 5 2 6 13% 378986 50045 94%
c i  0.28  0 89 3 293 17 2844 1701 1.5 8 6 2 6 13% 378986 50044 94%
c i  0.28  0 87 3 300 16 2882 1735 1.5 8 6 2 6 13% 378986 50040 94%
c O  0.28  0 82 3 315 15 3005 1857 1.5 8 6 2 6 13% 378986 50040 94%
c i  0.28  0 80 3 320 15 3062 1910 1.5 8 6 2 6 13% 378986 50039 94%
c i  0.29  0 77 3 339 14 3288 2129 1.5 8 6 2 6 14% 378986 50038 94%
c i  0.30  0 76 3 339 13 3367 2200 1.5 8 6 2 6 14% 378986 50031 94%
c -  0.35  0 72 4 430 12 4084 1959 1.5 9 6 2 6 15% 378911 50030 94%
c #  0.41  0 56 4 464  8 6006 3689 1.9 10 5 2 3 15% 378911 50030 94%
c i  0.43  0 58 4 473  8 6304 3951 1.9 10 5 2 3 16% 378911 50027 94%
c -  0.47  0 60 5 508  8 6605 2660 1.9 10 5 2 3 16% 378900 50027 94%
c i  0.49  0 58 5 522  8 7007 3028 1.9 10 5 2 3 16% 378900 50026 94%
c 
c  seconds  reduction conflicts       size  tier2        variables
c         MB    restarts   redundant     glue  trail          remaining
c          level     rate       size/glue tier1  irredundant
c 
c }  0.52  0 60 5 551  8 7391 3343 1.9 10 5 2 3 17% 378900 50026 94%
c [  0.52  0 37 5 551  2 7391 3343 1.4 20 14 2 6 15% 378900 50026 94%
c ]  0.73  0 36 5 552  2 9648 5505 1.9 23 12 4 12 20% 378900 50026 94%
c {  0.73  0 60 5 552  8 9648 5505 1.9 10 5 2 3 17% 378900 50026 94%
c -  0.77  0 61 6 584  8 9810 3527 1.9 10 5 2 3 17% 378894 50026 94%
c B  0.78  0 61 6 588  8 10008 3693 1.9 10 5 2 3 17% 378894 50026 94%
c i  0.82  0 60 6 620  8 10907 4447 1.9 10 5 2 3 18% 378894 50025 94%
c i  0.82  0 60 6 620  8 10930 4465 1.9 10 5 2 3 18% 378894 50023 94%
c i  0.84  0 60 6 633  7 11305 4786 1.9 10 5 2 3 18% 378894 50020 94%
c i  0.85  0 60 6 633  7 11833 5251 1.9 10 5 2 3 18% 378894 50017 94%
c i  0.86  0 60 6 637  7 11957 5359 1.9 10 5 2 3 18% 378894 50016 94%
c i  0.87  0 59 6 652  7 12102 5484 1.9 10 5 2 3 18% 378894 50014 94%
c i  0.87  0 59 6 652  7 12164 5542 1.9 10 5 2 3 18% 378894 50007 94%
c i  0.88  0 59 6 664  7 12310 5669 1.9 10 5 2 3 18% 378894 49998 94%
c i  0.88  0 58 6 679  7 12397 5749 1.9 10 5 2 3 18% 378894 49997 94%
c i  0.89  0 58 6 692  7 12469 5815 1.9 10 5 2 3 18% 378894 49995 94%
c i  0.90  0 58 6 714  7 12602 5934 1.9 10 5 2 3 18% 378894 49988 94%
c i  0.90  0 58 6 725  7 12775 6082 1.9 10 5 2 3 18% 378894 49986 94%
c i  0.90  0 58 6 725  7 12780 6086 1.9 10 5 2 3 18% 378894 49984 94%
c i  0.92  0 58 6 737  7 13256 6503 2.0 10 5 2 3 18% 378894 49982 94%
c 
c  seconds  reductions conflicts       size  tier2        variables
c         MB    restarts    redundant     glue  trail          remaining
c          level     rate        size/glue tier1  irredundant
c 
c i  0.92  0 58 6 737  7 13257 6503 2.0 10 5 2 3 18% 378894 49976 94%
c i  0.92  0 58 6 738  7 13267 6507 2.0 10 5 2 3 18% 378894 49973 94%
c i  0.92  0 58 6 738  7 13269 6508 2.0 10 5 2 3 18% 378894 49948 94%
c i  0.92  0 58 6 738  7 13271 6508 2.0 10 5 2 3 18% 378894 49946 94%
c i  0.93  0 58 6 748  7 13358 6581 2.0 10 5 2 3 18% 378894 49882 94%
c i  0.94  0 58 6 751  7 13468 6683 2.0 10 5 2 3 18% 378894 49819 94%
c i  0.94  0 58 6 754  7 13482 6693 2.0 10 5 2 3 18% 378894 49817 94%
c i  0.94  0 58 6 754  7 13484 6694 2.0 10 5 2 3 18% 378894 49816 94%
c i  0.94  0 58 6 754  7 13486 6695 2.0 10 5 2 3 18% 378894 49814 93%
c i  0.94  0 58 6 754  7 13488 6696 2.0 10 5 2 3 18% 378894 49813 93%
c i  0.94  0 58 6 754  7 13490 6697 2.0 10 5 2 3 18% 378894 49798 93%
c i  0.94  0 58 6 754  7 13492 6698 2.0 10 5 2 3 18% 378894 49797 93%
c i  0.94  0 58 6 754  7 13494 6699 2.0 10 5 2 3 18% 378894 49786 93%
c -  0.98  0 58 7 773  7 13719 4081 2.0 10 5 2 3 19% 377046 49782 93%
c i  1.07  0 60 7 835  7 14851 5098 2.0 10 5 2 3 20% 377046 49781 93%
c W  1.14  0 60 7 853  7 15009 5227 2.0 10 5 2 3 20% 377039 49781 93%
c }  1.32  0 57 7 979  6 17700 7617 2.1 11 5 2 3 21% 377039 49781 93%
c [  1.32  0 36 7 979  2 17700 7617 1.9 23 12 4 12 20% 377039 49781 93%
c -  1.37  0 37 8 980  2 18335 5999 2.0 23 11 4 12 20% 377039 49781 93%
c I  1.45  0 31 8 982  2 21011 8508 2.0 19 10 4 12 18% 377039 49781 93%
c 
c  seconds  reductions conflicts       size  tier2        variables
c         MB    restarts    redundant     glue  trail          remaining
c          level     rate        size/glue tier1  irredundant
c 
c -  1.70  0 30 9 983  2 23671 7518 2.2 21 9 2 5 20% 377039 49781 93%
c ]  1.83  0 30 9 983  2 26134 9877 2.4 22 9 2 5 21% 377039 49781 93%
c {  1.83  0 57 9 983  6 26134 9877 2.1 11 5 2 3 21% 377039 49781 93%
c F  1.98  0 55 9 1159  6 28012 11628 2.1 11 5 2 3 21% 377039 49781 93%
c -  2.12  0 53 10 1296  6 29737 9102 2.1 11 5 2 3 21% 377039 49781 93%
c }  2.69  0 49 10 2026  6 35615 14505 2.1 11 5 2 3 22% 377039 49781 93%
c [  2.69  0 30 10 2026  2 35615 14505 2.4 22 9 2 5 21% 377039 49781 93%
c i  2.69  0 30 10 2026  2 35622 14510 2.4 22 9 2 5 21% 377039 49780 93%
c B  2.72  0 31 10 2026  2 36013 14885 2.4 22 9 2 5 21% 377039 49780 93%
c -  2.79  0 31 11 2027  2 36533 11234 2.4 22 9 2 5 21% 377032 49780 93%
c ]  3.52  0 27 11 2032  2 43955 18438 2.4 23 10 2 4 22% 377032 49780 93%
c {  3.52  0 49 11 2032  6 43955 18438 2.1 11 5 2 3 22% 377032 49780 93%
c -  3.55  0 49 12 2049  6 44064 12741 2.1 11 5 2 3 22% 377032 49780 93%
c i  3.66  0 49 12 2157  6 44936 13546 2.1 11 5 2 3 22% 377032 49779 93%
c B  3.67  0 49 12 2167  7 45014 13615 2.1 11 5 2 3 22% 377032 49779 93%
c i  3.96  0 47 12 2539  7 47825 16198 2.1 11 5 2 3 22% 377032 49778 93%
c i  4.06  0 47 12 2668  7 48976 17266 2.1 11 5 2 3 22% 377032 49777 93%
c -  4.43  0 44 13 3093  7 52335 14921 2.2 12 5 2 3 22% 377009 49777 93%
c W  4.89  0 43 13 3507  7 55016 17412 2.1 12 6 2 3 22% 377009 49777 93%
c i  4.94  0 43 13 3554  6 55572 17930 2.1 12 6 2 3 22% 377009 49755 93%
c 
c  seconds  reductions   conflicts        size  tier2        variables
c         MB     restarts      redundant     glue  trail          remaining
c          level       rate         size/glue tier1  irredundant
c 
c }  5.03  0 42 13 3678  6 56586 18883 2.2 12 6 2 3 22% 377009 49755 93%
c [  5.03  0 27 13 3678  2 56586 18883 2.4 23 10 2 4 22% 377009 49755 93%
c -  5.44  0 24 14 3679  2 61353 17203 2.4 22 9 2 4 23% 375914 49755 93%
c i  5.65  0 23 14 3680  2 63506 19283 2.5 22 9 2 4 23% 375914 49576 93%
c W  5.97  0 22 14 3680  2 66019 20099 2.5 22 9 2 4 23% 373073 49576 93%
c i  6.29  0 22 14 3680  2 69242 23207 2.5 22 9 2 4 23% 373073 49564 93%
c ]  6.48  0 22 14 3681  2 70822 24753 2.5 22 9 1 2 23% 373073 49564 93%
c {  6.48  0 42 14 3681  6 70822 24753 2.2 12 6 2 3 22% 373073 49564 93%
c -  6.54  0 42 15 3732  6 71107 16498 2.2 12 6 2 3 22% 367853 49564 93%
c i  6.78  0 40 15 3980  6 73852 19048 2.2 12 6 2 3 22% 367853 49358 93%
c i  6.99  0 39 15 4251  6 75655 20733 2.2 12 6 2 3 22% 367853 49223 92%
c i  7.03  0 39 15 4320  6 76075 21128 2.2 12 6 2 3 22% 367853 49171 92%
c i  7.13  0 38 15 4399  6 77436 22400 2.2 12 6 2 3 22% 367853 49128 92%
c #  7.16  0 38 15 4419  6 78022 22952 2.2 12 6 2 3 22% 367853 49128 92%
c i  7.35  0 36 15 4694  6 79931 24747 2.2 12 6 2 3 22% 367853 49125 92%
c i  7.36  0 36 15 4694  6 79991 24804 2.2 12 6 2 3 22% 367853 49105 92%
c i  7.38  0 36 15 4694  6 80256 25058 2.2 12 6 2 3 21% 367853 49060 92%
c i  7.38  0 36 15 4694  6 80266 25067 2.2 12 6 2 3 21% 367853 48868 92%
c i  7.38  0 36 15 4694  6 80289 25087 2.2 12 6 2 3 21% 367853 47971 90%
c i  7.38  0 36 15 4694  6 80290 25087 2.2 12 6 2 3 21% 367853 47960 90%
c 
c  seconds  reductions   conflicts        size  tier2        variables
c         MB     restarts      redundant     glue  trail          remaining
c          level       rate         size/glue tier1  irredundant
c 
c i  7.38  0 36 15 4694  6 80323 25114 2.2 12 6 2 3 21% 367853 47946 90%
c }  7.38  0 36 15 4694  6 80329 25118 2.2 12 6 2 3 21% 367853 47349 89%
c 0  7.38  0 36 15 4694  6 80329 25118 2.2 12 6 2 3 21% 367853 47349 89%
c 
c --- [ closing proof ] ------------------------------------------------------
c 
c DRAT proof file 'scratch/atail-force/exact5-card13-same-radius-terminal/mirror.drat' closed
c DRAT 163489 added clauses 52.48%
c DRAT 148052 deleted clauses 47.52%
c DRAT 8181887 bytes (7.80 MB)
c 
c --- [ result ] -------------------------------------------------------------
c 
s UNSATISFIABLE
c 
c --- [ run-time profiling ] -------------------------------------------------
c 
c process time taken by individual solving procedures
c (percentage relative to process time for solving)
c 
c         7.31  100.00% search
c         4.00   54.76% unstable
c         3.00   41.09% stable
c         0.30    4.11% walk
c         0.07    0.94% parse
c         0.00    0.03% lucky
c         0.00    0.00% simplify
c   =================================
c         7.31   99.05% solve
c 
c last line shows process time for solving
c (percentage relative to total process time)
c 
c --- [ statistics ] ---------------------------------------------------------
c 
c chronological:             32221        40.11 %  of conflicts
c conflicts:                 80329     10988.21    per second
c decisions:                323227     44214.26    per second
c fixed:                      5930        11.13 %  of all variables
c learned:                   75355        93.81 %  per conflict
c learned_lits:            1812786       100.00 %  learned literals
c minimized:                     0         0.00 %  learned literals
c shrunken:                 306485        16.91 %  learned literals
c minishrunken:             253601        13.99 %  learned literals
c otfs:                       2160         2.69 %  of conflict
c propagations:          135315675        18.51 M  per second
c reduced:                   42576        53.00 %  per conflict
c rephased:                     12      6694.08    interval
c restarts:                   4694        17.11    interval
c stabilizing:                   5        43.00 %  of conflicts
c subsumed:                    258         0.06 %  of all clauses
c strengthened:               2031         0.45 %  of all clauses
c ticks:                 626051202         4.63    propagation
c walked:                        3     26776.33    interval
c 
c seconds are measured in process time for solving
c 
c --- [ glue usage ] ---------------------------------------------------------
c 
c focused glue 1 used 122445 clauses 60.55% accumulated 60.55% tier1
c focused glue 2 used 36787 clauses 18.19% accumulated 78.74% tier2
c 
c stable glue 1 used 151506 clauses 53.88% accumulated 53.88% tier1
c stable glue 2 used 44908 clauses 15.97% accumulated 69.85% tier2
c 
c 
c --- [ resources ] ----------------------------------------------------------
c 
c total process time since initialization:         7.38    seconds
c total real time since initialization:            7.38    seconds
c maximum resident set size of process:       319776.00    MB
c 
c --- [ shutting down ] ------------------------------------------------------
c 
c exit 20
